
(set-logic QF_BV)

(define-fun min () (_ BitVec 45) (bvnot (bvlshr (bvnot (_ bv0 45)) (_ bv1 45))))

(define-fun max () (_ BitVec 45) (bvnot min))

(define-fun udivtotal ((a (_ BitVec 45)) (b (_ BitVec 45))) (_ BitVec 45)
  (ite (= b (_ bv0 45)) (bvnot (_ bv0 45)) (bvudiv a b))
)
(define-fun uremtotal ((a (_ BitVec 45)) (b (_ BitVec 45))) (_ BitVec 45)
  (ite (= b (_ bv0 45)) a (bvurem a b))
)

(declare-fun s () (_ BitVec 45))
(declare-fun t () (_ BitVec 45))
(define-fun inv ((s (_ BitVec 45)) (t (_ BitVec 45))) (_ BitVec 45) (bvnot (bvor s #b011111111111111111111111111111111111111111111)))
(define-fun l ((x (_ BitVec 45))) Bool  (bvult (bvashr s (inv s t)) t))
(define-fun SC () Bool (and (not (and (not (bvult s t)) (bvslt s (_ bv0 45)))) (not (= t (_ bv0 45)))))
(define-fun is_cond_inv () Bool (=> SC (l (inv s t))))

(assert (not is_cond_inv))
(check-sat)
